p cnf 1222
-18 -382
-19 -385
-20 -388
-21 -391
-22 -394
-23 -397
-24 -400
-25 -403
-26 -406
-27 -409
-28 -412
-29 -415
-30 -418
-31 -421
-32 -424
-33 -427
-34 -430
-35 431
-36 432
-37 433
-38 434
-39 435
-40 436
-41 437
-42 438
-43 439
-44 440
-45 -19
-45 -20
19 20 45
-46 -21
-46 -22
21 22 46
-47 -23
-47 -24
23 24 47
-48 -25
-48 -26
25 26 48
-49 -27
-49 -28
27 28 49
-50 -29
-50 -30
29 30 50
-51 -31
-51 -32
31 32 51
-52 -33
-52 -34
33 34 52
-53 -35
-53 -36
35 36 53
-54 -37
-54 -38
37 38 54
-55 -39
-55 -40
39 40 55
-56 -41
-56 -42
41 42 56
-57 -43
-57 -44
43 44 57
-58 45
-58 46
-45 -46 58
-59 47
-59 48
-47 -48 59
-60 49
-60 50
-49 -50 60
-61 51
-61 52
-51 -52 61
-62 53
-62 54
-53 -54 62
-63 55
-63 56
-55 -56 63
-64 58
-64 59
-58 -59 64
-65 60
-65 61
-60 -61 65
-66 62
-66 63
-62 -63 66
-67 64
-67 65
-64 -65 67
-68 57
-68 66
-57 -66 68
-69 67
-69 68
-67 -68 69
-70 -18
-70 19
18 -19 70
-71 18
-71 -19
-18 19 71
-72 -70
-72 -71
70 71 72
-73 18
-73 19
-18 -19 73
-74 -18
-74 -72
18 72 74
-75 18
-75 72
-18 -72 75
-76 -74
-76 -75
74 75 76
-77 18
-77 -72
-18 72 77
-78 -73
-78 -77
73 77 78
-79 -19
-79 20
19 -20 79
-80 19
-80 -20
-19 20 80
-81 -79
-81 -80
79 80 81
-82 19
-82 20
-19 -20 82
-83 78
-83 -81
-78 81 83
-84 -78
-84 81
78 -81 84
-85 -83
-85 -84
83 84 85
-86 -78
-86 -81
78 81 86
-87 -82
-87 -86
82 86 87
-88 -20
-88 21
20 -21 88
-89 20
-89 -21
-20 21 89
-90 -88
-90 -89
88 89 90
-91 20
-91 21
-20 -21 91
-92 87
-92 -90
-87 90 92
-93 -87
-93 90
87 -90 93
-94 -92
-94 -93
92 93 94
-95 -87
-95 -90
87 90 95
-96 -91
-96 -95
91 95 96
-97 -21
-97 22
21 -22 97
-98 21
-98 -22
-21 22 98
-99 -97
-99 -98
97 98 99
-100 21
-100 22
-21 -22 100
-101 96
-101 -99
-96 99 101
-102 -96
-102 99
96 -99 102
-103 -101
-103 -102
101 102 103
-104 -96
-104 -99
96 99 104
-105 -100
-105 -104
100 104 105
-106 -22
-106 23
22 -23 106
-107 22
-107 -23
-22 23 107
-108 -106
-108 -107
106 107 108
-109 22
-109 23
-22 -23 109
-110 105
-110 -108
-105 108 110
-111 -105
-111 108
105 -108 111
-112 -110
-112 -111
110 111 112
-113 -105
-113 -108
105 108 113
-114 -109
-114 -113
109 113 114
-115 -23
-115 24
23 -24 115
-116 23
-116 -24
-23 24 116
-117 -115
-117 -116
115 116 117
-118 23
-118 24
-23 -24 118
-119 114
-119 -117
-114 117 119
-120 -114
-120 117
114 -117 120
-121 -119
-121 -120
119 120 121
-122 -114
-122 -117
114 117 122
-123 -118
-123 -122
118 122 123
-124 -24
-124 25
24 -25 124
-125 24
-125 -25
-24 25 125
-126 -124
-126 -125
124 125 126
-127 24
-127 25
-24 -25 127
-128 123
-128 -126
-123 126 128
-129 -123
-129 126
123 -126 129
-130 -128
-130 -129
128 129 130
-131 -123
-131 -126
123 126 131
-132 -127
-132 -131
127 131 132
-133 -25
-133 26
25 -26 133
-134 25
-134 -26
-25 26 134
-135 -133
-135 -134
133 134 135
-136 25
-136 26
-25 -26 136
-137 132
-137 -135
-132 135 137
-138 -132
-138 135
132 -135 138
-139 -137
-139 -138
137 138 139
-140 -132
-140 -135
132 135 140
-141 -136
-141 -140
136 140 141
-142 -26
-142 27
26 -27 142
-143 26
-143 -27
-26 27 143
-144 -142
-144 -143
142 143 144
-145 26
-145 27
-26 -27 145
-146 141
-146 -144
-141 144 146
-147 -141
-147 144
141 -144 147
-148 -146
-148 -147
146 147 148
-149 -141
-149 -144
141 144 149
-150 -145
-150 -149
145 149 150
-151 -27
-151 28
27 -28 151
-152 27
-152 -28
-27 28 152
-153 -151
-153 -152
151 152 153
-154 27
-154 28
-27 -28 154
-155 150
-155 -153
-150 153 155
-156 -150
-156 153
150 -153 156
-157 -155
-157 -156
155 156 157
-158 -150
-158 -153
150 153 158
-159 -154
-159 -158
154 158 159
-160 -28
-160 29
28 -29 160
-161 28
-161 -29
-28 29 161
-162 -160
-162 -161
160 161 162
-163 28
-163 29
-28 -29 163
-164 159
-164 -162
-159 162 164
-165 -159
-165 162
159 -162 165
-166 -164
-166 -165
164 165 166
-167 -159
-167 -162
159 162 167
-168 -163
-168 -167
163 167 168
-169 -29
-169 30
29 -30 169
-170 29
-170 -30
-29 30 170
-171 -169
-171 -170
169 170 171
-172 29
-172 30
-29 -30 172
-173 168
-173 -171
-168 171 173
-174 -168
-174 171
168 -171 174
-175 -173
-175 -174
173 174 175
-176 -168
-176 -171
168 171 176
-177 -172
-177 -176
172 176 177
-178 -30
-178 31
30 -31 178
-179 30
-179 -31
-30 31 179
-180 -178
-180 -179
178 179 180
-181 30
-181 31
-30 -31 181
-182 177
-182 -180
-177 180 182
-183 -177
-183 180
177 -180 183
-184 -182
-184 -183
182 183 184
-185 -177
-185 -180
177 180 185
-186 -181
-186 -185
181 185 186
-187 -31
-187 32
31 -32 187
-188 31
-188 -32
-31 32 188
-189 -187
-189 -188
187 188 189
-190 31
-190 32
-31 -32 190
-191 186
-191 -189
-186 189 191
-192 -186
-192 189
186 -189 192
-193 -191
-193 -192
191 192 193
-194 -186
-194 -189
186 189 194
-195 -190
-195 -194
190 194 195
-196 -32
-196 33
32 -33 196
-197 32
-197 -33
-32 33 197
-198 -196
-198 -197
196 197 198
-199 32
-199 33
-32 -33 199
-200 195
-200 -198
-195 198 200
-201 -195
-201 198
195 -198 201
-202 -200
-202 -201
200 201 202
-203 -195
-203 -198
195 198 203
-204 -199
-204 -203
199 203 204
-205 -33
-205 34
33 -34 205
-206 33
-206 -34
-33 34 206
-207 -205
-207 -206
205 206 207
-208 33
-208 34
-33 -34 208
-209 204
-209 -207
-204 207 209
-210 -204
-210 207
204 -207 210
-211 -209
-211 -210
209 210 211
-212 -204
-212 -207
204 207 212
-213 -208
-213 -212
208 212 213
-214 -34
-214 35
34 -35 214
-215 34
-215 -35
-34 35 215
-216 -214
-216 -215
214 215 216
-217 34
-217 35
-34 -35 217
-218 213
-218 -216
-213 216 218
-219 -213
-219 216
213 -216 219
-220 -218
-220 -219
218 219 220
-221 -213
-221 -216
213 216 221
-222 -217
-222 -221
217 221 222
-223 -35
-223 36
35 -36 223
-224 35
-224 -36
-35 36 224
-225 -223
-225 -224
223 224 225
-226 35
-226 36
-35 -36 226
-227 222
-227 -225
-222 225 227
-228 -222
-228 225
222 -225 228
-229 -227
-229 -228
227 228 229
-230 -222
-230 -225
222 225 230
-231 -226
-231 -230
226 230 231
-232 -36
-232 37
36 -37 232
-233 36
-233 -37
-36 37 233
-234 -232
-234 -233
232 233 234
-235 36
-235 37
-36 -37 235
-236 231
-236 -234
-231 234 236
-237 -231
-237 234
231 -234 237
-238 -236
-238 -237
236 237 238
-239 -231
-239 -234
231 234 239
-240 -235
-240 -239
235 239 240
-241 -37
-241 38
37 -38 241
-242 37
-242 -38
-37 38 242
-243 -241
-243 -242
241 242 243
-244 37
-244 38
-37 -38 244
-245 240
-245 -243
-240 243 245
-246 -240
-246 243
240 -243 246
-247 -245
-247 -246
245 246 247
-248 -240
-248 -243
240 243 248
-249 -244
-249 -248
244 248 249
-250 -38
-250 39
38 -39 250
-251 38
-251 -39
-38 39 251
-252 -250
-252 -251
250 251 252
-253 38
-253 39
-38 -39 253
-254 249
-254 -252
-249 252 254
-255 -249
-255 252
249 -252 255
-256 -254
-256 -255
254 255 256
-257 -249
-257 -252
249 252 257
-258 -253
-258 -257
253 257 258
-259 -39
-259 40
39 -40 259
-260 39
-260 -40
-39 40 260
-261 -259
-261 -260
259 260 261
-262 39
-262 40
-39 -40 262
-263 258
-263 -261
-258 261 263
-264 -258
-264 261
258 -261 264
-265 -263
-265 -264
263 264 265
-266 -258
-266 -261
258 261 266
-267 -262
-267 -266
262 266 267
-268 -40
-268 41
40 -41 268
-269 40
-269 -41
-40 41 269
-270 -268
-270 -269
268 269 270
-271 40
-271 41
-40 -41 271
-272 267
-272 -270
-267 270 272
-273 -267
-273 270
267 -270 273
-274 -272
-274 -273
272 273 274
-275 -267
-275 -270
267 270 275
-276 -271
-276 -275
271 275 276
-277 -41
-277 42
41 -42 277
-278 41
-278 -42
-41 42 278
-279 -277
-279 -278
277 278 279
-280 41
-280 42
-41 -42 280
-281 276
-281 -279
-276 279 281
-282 -276
-282 279
276 -279 282
-283 -281
-283 -282
281 282 283
-284 -276
-284 -279
276 279 284
-285 -280
-285 -284
280 284 285
-286 -42
-286 43
42 -43 286
-287 42
-287 -43
-42 43 287
-288 -286
-288 -287
286 287 288
-289 42
-289 43
-42 -43 289
-290 285
-290 -288
-285 288 290
-291 -285
-291 288
285 -288 291
-292 -290
-292 -291
290 291 292
-293 -285
-293 -288
285 288 293
-294 -289
-294 -293
289 293 294
-295 -43
-295 44
43 -44 295
-296 43
-296 -44
-43 44 296
-297 -295
-297 -296
295 296 297
-298 43
-298 44
-43 -44 298
-299 294
-299 -297
-294 297 299
-300 -294
-300 297
294 -297 300
-301 -299
-301 -300
299 300 301
-302 -294
-302 -297
294 297 302
-303 -298
-303 -302
298 302 303
-304 18
-304 -76
-18 76 304
-305 -18
-305 20
18 -20 305
-306 -304
-306 -305
304 305 306
-307 18
-307 -85
-18 85 307
-308 -18
-308 21
18 -21 308
-309 -307
-309 -308
307 308 309
-310 18
-310 -94
-18 94 310
-311 -18
-311 22
18 -22 311
-312 -310
-312 -311
310 311 312
-313 18
-313 -103
-18 103 313
-314 -18
-314 23
18 -23 314
-315 -313
-315 -314
313 314 315
-316 18
-316 -112
-18 112 316
-317 -18
-317 24
18 -24 317
-318 -316
-318 -317
316 317 318
-319 18
-319 -121
-18 121 319
-320 -18
-320 25
18 -25 320
-321 -319
-321 -320
319 320 321
-322 18
-322 -130
-18 130 322
-323 -18
-323 26
18 -26 323
-324 -322
-324 -323
322 323 324
-325 18
-325 -139
-18 139 325
-326 -18
-326 27
18 -27 326
-327 -325
-327 -326
325 326 327
-328 18
-328 -148
-18 148 328
-329 -18
-329 28
18 -28 329
-330 -328
-330 -329
328 329 330
-331 18
-331 -157
-18 157 331
-332 -18
-332 29
18 -29 332
-333 -331
-333 -332
331 332 333
-334 18
-334 -166
-18 166 334
-335 -18
-335 30
18 -30 335
-336 -334
-336 -335
334 335 336
-337 18
-337 -175
-18 175 337
-338 -18
-338 31
18 -31 338
-339 -337
-339 -338
337 338 339
-340 18
-340 -184
-18 184 340
-341 -18
-341 32
18 -32 341
-342 -340
-342 -341
340 341 342
-343 18
-343 -193
-18 193 343
-344 -18
-344 33
18 -33 344
-345 -343
-345 -344
343 344 345
-346 18
-346 -202
-18 202 346
-347 -18
-347 34
18 -34 347
-348 -346
-348 -347
346 347 348
-349 18
-349 -211
-18 211 349
-350 -18
-350 35
18 -35 350
-351 -349
-351 -350
349 350 351
-352 18
-352 -220
-18 220 352
-353 -18
-353 36
18 -36 353
-354 -352
-354 -353
352 353 354
-355 18
-355 -229
-18 229 355
-356 -18
-356 37
18 -37 356
-357 -355
-357 -356
355 356 357
-358 18
-358 -238
-18 238 358
-359 -18
-359 38
18 -38 359
-360 -358
-360 -359
358 359 360
-361 18
-361 -247
-18 247 361
-362 -18
-362 39
18 -39 362
-363 -361
-363 -362
361 362 363
-364 18
-364 -256
-18 256 364
-365 -18
-365 40
18 -40 365
-366 -364
-366 -365
364 365 366
-367 18
-367 -265
-18 265 367
-368 -18
-368 41
18 -41 368
-369 -367
-369 -368
367 368 369
-370 18
-370 -274
-18 274 370
-371 -18
-371 42
18 -42 371
-372 -370
-372 -371
370 371 372
-373 18
-373 -283
-18 283 373
-374 -18
-374 43
18 -43 374
-375 -373
-375 -374
373 374 375
-376 18
-376 -292
-18 292 376
-377 -18
-377 44
18 -44 377
-378 -376
-378 -377
376 377 378
-379 18
-379 -301
-18 301 379
-380 1
-380 69
-1 -69 380
-381 -69
-381 70
69 -70 381
-382 -380
-382 -381
380 381 382
-383 2
-383 69
-2 -69 383
-384 -69
-384 -306
69 306 384
-385 -383
-385 -384
383 384 385
-386 3
-386 69
-3 -69 386
-387 -69
-387 -309
69 309 387
-388 -386
-388 -387
386 387 388
-389 4
-389 69
-4 -69 389
-390 -69
-390 -312
69 312 390
-391 -389
-391 -390
389 390 391
-392 5
-392 69
-5 -69 392
-393 -69
-393 -315
69 315 393
-394 -392
-394 -393
392 393 394
-395 6
-395 69
-6 -69 395
-396 -69
-396 -318
69 318 396
-397 -395
-397 -396
395 396 397
-398 7
-398 69
-7 -69 398
-399 -69
-399 -321
69 321 399
-400 -398
-400 -399
398 399 400
-401 8
-401 69
-8 -69 401
-402 -69
-402 -324
69 324 402
-403 -401
-403 -402
401 402 403
-404 9
-404 69
-9 -69 404
-405 -69
-405 -327
69 327 405
-406 -404
-406 -405
404 405 406
-407 10
-407 69
-10 -69 407
-408 -69
-408 -330
69 330 408
-409 -407
-409 -408
407 408 409
-410 11
-410 69
-11 -69 410
-411 -69
-411 -333
69 333 411
-412 -410
-412 -411
410 411 412
-413 12
-413 69
-12 -69 413
-414 -69
-414 -336
69 336 414
-415 -413
-415 -414
413 414 415
-416 13
-416 69
-13 -69 416
-417 -69
-417 -339
69 339 417
-418 -416
-418 -417
416 417 418
-419 14
-419 69
-14 -69 419
-420 -69
-420 -342
69 342 420
-421 -419
-421 -420
419 420 421
-422 15
-422 69
-15 -69 422
-423 -69
-423 -345
69 345 423
-424 -422
-424 -423
422 423 424
-425 16
-425 69
-16 -69 425
-426 -69
-426 -348
69 348 426
-427 -425
-427 -426
425 426 427
-428 17
-428 69
-17 -69 428
-429 -69
-429 -351
69 351 429
-430 -428
-430 -429
428 429 430
-431 -69
-431 -354
69 354 431
-432 -69
-432 -357
69 357 432
-433 -69
-433 -360
69 360 433
-434 -69
-434 -363
69 363 434
-435 -69
-435 -366
69 366 435
-436 -69
-436 -369
69 369 436
-437 -69
-437 -372
69 372 437
-438 -69
-438 -375
69 375 438
-439 -69
-439 -378
69 378 439
-440 -69
-440 379
69 -379 440
-441 -44
-441 303
44 -303 441
-442 18
-442 -441
-18 441 442
442
